c description: Random 3-CNF over 19 variables and 81 clauses
c generator: CNFgen (0.9.2)
c copyright: (C) 2012-2022 Massimo Lauria <massimo.lauria@uniroma1.it>
c url: https://massimolauria.net/cnfgen
c command line: cnfgen --output CNF_4.28/19_bit_81_455.cnf randkcnf 3 19 81
c
p cnf 19 81
6 -12 -13 0
-3 6 -8 0
3 4 19 0
-3 6 15 0
-5 13 -19 0
-3 4 12 0
-5 8 -9 0
-1 4 19 0
4 -5 -14 0
1 -4 11 0
-10 12 -19 0
3 -10 -17 0
-1 -5 12 0
8 -9 12 0
-3 6 9 0
-2 3 -19 0
-5 -10 -15 0
11 12 13 0
3 -8 -14 0
-4 -7 11 0
-7 8 13 0
-6 -12 19 0
-7 -8 -10 0
-3 9 -14 0
6 13 -15 0
-5 7 -16 0
-11 -12 -19 0
1 17 19 0
-2 -12 13 0
-6 9 -14 0
2 -4 -6 0
-6 -11 12 0
6 10 -11 0
-3 5 15 0
-3 4 -13 0
-10 -17 -19 0
-5 -10 15 0
5 11 19 0
9 16 18 0
11 16 -19 0
1 -16 17 0
5 -6 12 0
-11 14 19 0
-1 -12 -16 0
7 11 12 0
-4 -11 13 0
1 7 8 0
-2 8 -15 0
-2 -8 16 0
-3 5 -12 0
-8 10 15 0
6 -14 -19 0
3 8 16 0
-5 -8 14 0
-10 15 18 0
-5 -13 17 0
-3 5 -6 0
-11 12 13 0
-2 3 -7 0
7 -13 -15 0
-1 -2 5 0
-9 -13 -17 0
7 -13 -14 0
1 -11 15 0
5 14 -19 0
1 5 16 0
7 -15 16 0
4 7 -11 0
4 -14 17 0
-2 -15 -18 0
-4 -7 -17 0
-6 9 12 0
-1 2 -4 0
-10 13 19 0
3 -8 -17 0
10 14 -15 0
3 5 13 0
2 -8 -18 0
5 10 -18 0
12 -14 -17 0
1 3 7 0
